letting n =  10
letting blocks =  [[1, 2], [2, 1], [2, 6], [2, 7], [3, 1], [3, 4], [3, 5], [3, 6], [4, 1], [4, 2], [4, 4], [4, 5], [4, 9], [5, 1], [5, 5], [5, 7], [5, 8], [6, 5], [6, 6], [6, 9], [7, 6], [7, 7], [7, 8], [8, 3], [8, 7], [9, 1], [9, 4], [9, 5], [9, 6], [9, 8], [10, 4], [10, 8]]
